(declare-fun x () Int)
(declare-fun y () Bool)
(declare-fun z () Double)

(assert (let ((.def_11 (not E0)) (.def_12 (not f1))) (+ .def_11 .def_12) ) )
(assert (let ((.def_11 (not E0)) (.def_12 (not f1))) (* .def_11 .def_12) ) ) 
(assert (let ((.def_10 (not f0))) (+ .def_10 1)))
(assert (and x y x))
(assert (and x z x))
(assert (and z y z y))
(assert (and z y z y))
(assert (and z y (or z y)))
(assert (and z y (or z y)))
(assert (+ x y))
(assert (+ z x))
(assert (and x z x z))